3
21
37
40	31
1	2	14	8	11	6	
2	1	12	4	
3	3	8	7	6	10	18	3	
4	1	22	4	
5	2	9	7	31	4	
6	2	14	4	6	8	
7	1	13	8	
8	1	14	5	
9	2	8	13	8	9	
10	2	8	6	31	2	
11	1	20	2	
12	1	6	9	
13	1	7	10	
14	1	10	6	
15	3	9	5	15	5	24	4	
16	3	6	10	27	4	7	13	
17	3	6	9	6	6	8	6	
18	2	5	11	5	6	
19	1	6	12	
20	1	5	7	
21	3	6	9	13	2	20	3	
